sat
(:max-memory         18.24
 :memory             18.07
 :nlsat-propagations 11
 :nlsat-stages       4
 :num-allocs         7365
 :rlimit-count       8578
 :time               0.00
 :total-time         0.02)
